NAME : OMNETRUN
COMMENT : 524.61
TYPE : CVRP
DIMENSION : 21
EDGE_WEIGHT_TYPE : EUC_2D
CAPACITY : 21
NODE_COORD_SECTION
1 0.107093 -0.77924
2 12.5342 -134.327
3 109.324 -540.255
4 143.677 -1068.18
5 157.039 -2040.83
6 148.203 -2561.65
7 137.117 -3465.91
8 69.5654 -5003.57
9 61.6116 -5404.29
10 480.452 -226.446
11 339.127 -1650.09
12 316.121 -3051.77
13 416.175 -3995.39
14 423.172 -4942.25
15 378.163 -5586.23
16 535.141 -804.411
17 732.581 -1211.01
18 514.511 -2229.76
19 698.597 -3105.43
20 621.467 -3470.83
21 583.699 -4402.05
DEMAND_SECTION
1 0
2 1
3 1
4 1
5 1
6 1
7 1
8 1
9 1
10 1
11 1
12 1
13 1
14 1
15 1
16 1
17 1
18 1
19 1
20 1
21 1
DEPOT_SECTION
1
-1
EOF
